100
128
27
57
7
49
45
61
25
18
2
39
45
11
47
5
14
24
12
41
53
33
12
62
11
60
19
58
61
44
37
29
57
47
24
4
48
64
16
44
25
40
32
48
37
16
30
34
20
27
24
33
17
53
53
15
21
53
32
21
14
13
47
63
15
14
15
19
38
20
35
51
35
24
14
40
18
20
23
32
50
15
1
22
48
1
23
17
29
10
20
22
58
41
23
38
37
64
50
52
30
39